(set-info :smt-lib-version 2.6)
(set-logic QF_S)
(set-info :source |
Generated by: Murphy Berzish, Mitja Kulczynski, Federico Mora, Florin Manea, Joel Day, Dirk Nowotka, Vijay Ganesh, Zhengyang Lu
Generated on: 2020-10-01
Description: Translated from a collection of real-world regex queries, AutomataArk, collected by Loris D’Antoni and Fang Wang: https://github.com/lorisdanto/automatark
Application: Evaluate solvers on real-world regex queries
Target solver: Z3str3RE, CVC4, OSTRICH, Z3seq, Z3str3, Z3-Trau
Publications: Berzish, M., Kulczynski, M., Mora, F., Manea, F., Day, J. D., Nowotka, D., & Ganesh, V. (2021, July). An SMT solver for regular expressions and linear arithmetic over string length. In CAV 2021.
|)
(set-info :license "https://creativecommons.org/licenses/by/4.0/")
(set-info :category "industrial")
(set-info :status sat)

(declare-const X String)
(assert (str.in_re X (re.++ (re.opt (str.to_re "-")) (re.* (re.range "0" "9")) (re.opt (re.++ (str.to_re ".") (re.+ (re.range "0" "9")))) (str.to_re "\u{a}"))))
(assert (not (str.in_re X (re.++ (str.to_re "dl.web-nexus.net") (re.+ (re.range "0" "9")) (str.to_re "www.onlinecasinoextra.comsqlads.grokads.com\u{a}")))))
(assert (not (str.in_re X (re.++ (str.to_re "/") (re.union (str.to_re "DisableSandboxAndDrop") (str.to_re "ConfusedClass") (str.to_re "FieldAccessVerifierExpl")) (str.to_re ".class/ims\u{a}")))))
(assert (not (str.in_re X (re.++ (re.opt (re.++ (str.to_re ".") (re.opt (re.union (re.opt (str.to_re "0")) (re.opt (re.range "1" "9")) (re.++ (str.to_re "1") (re.opt (re.range "0" "1"))))))) (str.to_re "\u{a}") (re.range "1" "9") (re.opt (re.range "0" "9"))))))
(check-sat)

(exit)
